15,4	0,0	19,3	15,5	0,0	0,0	0,0	0,0	0,0	9,4
9,5	14,2	0,0	14,8	17,1	0,0	0,0	16,6	0,0	0,0
0,0	0,0	6,1	0,0	6,7	19,2	0,0	0,0	13,7	0,0
19,3	0,0	14,3	0,0	0,0	0,0	13,5	0,0	0,0	0,0
0,0	19,8	0,0	6,0	19,4	0,0	0,0	12,6	0,0	0,0
0,0	11,1	8,7	0,0	5,9	15,7	0,0	0,0	16,6	0,0
0,0	10,3	0,0	8,0	0,0	0,0	18,0	0,0	0,0	17,2
16,2	0,0	11,0	0,0	0,0	0,0	0,0	0,0	0,0	13,0
0,0	19,0	0,0	6,9	5,7	0,0	0,0	7,5	0,0	0,0
0,0	0,0	12,8	0,0	0,0	10,2	10,8	0,0	0,0	12,5
									
3,9	2,7	4,5	3,2	2,8	4,7	2,7	3,4	2,8	3,0
